GLPSOL--GLPK LP/MIP Solver 5.0
Parameter(s) specified in the command line:
 --lp ../modeles/20_284.lp --log 20_284.log
Reading problem data from '../modeles/20_284.lp'...
5761 rows, 11400 columns, 39820 non-zeros
5680 integer variables, all of which are binary
17187 lines were read
GLPK Integer Optimizer 5.0
5761 rows, 11400 columns, 39820 non-zeros
5680 integer variables, all of which are binary
Preprocessing...
5640 constraint coefficient(s) were reduced
5761 rows, 11380 columns, 39800 non-zeros
5680 integer variables, all of which are binary
Scaling...
 A: min|aij| =  1.984e-04  max|aij| =  4.000e+00  ratio =  2.016e+04
GM: min|aij| =  8.392e-02  max|aij| =  1.192e+01  ratio =  1.420e+02
EQ: min|aij| =  7.042e-03  max|aij| =  1.000e+00  ratio =  1.420e+02
2N: min|aij| =  6.348e-03  max|aij| =  1.761e+00  ratio =  2.774e+02
Constructing initial basis...
Size of triangular part is 5761
Solving LP relaxation...
GLPK Simplex Optimizer 5.0
5761 rows, 11380 columns, 39800 non-zeros
      0: obj =   4.000000000e+01 inf =   9.950e+01 (41)
Perturbing LP to avoid stalling [199]...
    379: obj =   7.779679091e-02 inf =   0.000e+00 (0)
Removing LP perturbation [1204]...
*  1204: obj =  -4.471149478e+00 inf =   6.280e-13 (0) 1
OPTIMAL LP SOLUTION FOUND
Integer optimization begins...
Long-step dual simplex will be used
+  1204: mip =     not found yet >=              -inf        (1; 0)
+  1373: >>>>>  -4.471149478e+00 >=  -4.471149478e+00 < 0.1% (168; 0)
+  1373: mip =  -4.471149478e+00 >=     tree is empty   0.0% (0; 335)
INTEGER OPTIMAL SOLUTION FOUND
Time used:   2.4 secs
Memory used: 16.4 Mb (17244686 bytes)
